% Logging successfully configured
%%%mzn-stat: initTime=0.042520957
%%%mzn-stat: objective=716
%%%mzn-stat: nodes=150904
%%%mzn-stat: restarts=0
%%%mzn-stat: peakDepth=1147
%%%mzn-stat: solveTime=74.713768306
%%%mzn-stat: variables=1777
%%%mzn-stat: propagators=6372
%%%mzn-stat: failures=99099
%%%mzn-stat: propagations=81115206
%%%mzn-stat: nogoods=99099
%%%mzn-stat: numAtomicConstraintsPropagated=0
%%%mzn-stat: circuitNumber4951PropagationsThatFoundConflict=2399
%%%mzn-stat: circuitNumber4951TotalFixedEdgesAtConflict=215125
%%%mzn-stat: circuitNumber4951NumberOfConflicts=2399
%%%mzn-stat: circuitNumber4951PropagationsThatPruned=112815
%%%mzn-stat: circuitNumber4951PropagationsTotal=256927
%%%mzn-stat: AverageConflictSize=2.4172292354110536
%%%mzn-stat: NumUnitNogoodsLearned=0
%%%mzn-stat: AverageLearnedNogoodLength=61.59932996296633
%%%mzn-stat: AverageBacktrackAmount=0
%%%mzn-stat: AverageLbd=53.86752641298096
%%%mzn-stat: 2AutonomousSearchNumBackupCalled=1070
%%%mzn-stat: 2AutonomousSearchNumPredicatesRemoved=0
%%%mzn-stat: 2AutonomousSearchNumCalls=1071
%%%mzn-stat: 2AutonomousSearchNumPredicatesAdded=2975
%%%mzn-stat: 2AutonomousSearchAverageSizeOfHeap=2.7777777777777777
%%%mzn-stat: 2AutonomousSearchNumAssignedPredicatesEncountered=2975
%%%mzn-stat-end
maxleg = 716;
succ = array1d(1..100,[16, 4, 18, 5, 15, 8, 22, 10, 24, 19, 17, 32, 6, 40, 25, 33, 21, 14, 30, 13, 23, 34, 20, 41, 43, 3, 11, 27, 9, 1, 26, 39, 56, 35, 38, 31, 50, 44, 47, 48, 63, 28, 12, 45, 52, 29, 51, 54, 46, 42, 58, 57, 7, 64, 60, 84, 59, 85, 96, 49, 2, 53, 72, 95, 80, 36, 71, 55, 61, 83, 73, 88, 75, 77, 90, 78, 79, 92, 82, 98, 89, 66, 76, 87, 65, 68, 99, 93, 91, 74, 67, 100, 37, 62, 69, 70, 86, 94, 81, 97]);
% time elapsed: 86.61 s
----------
%%%mzn-stat: initTime=0.042520957
%%%mzn-stat: objective=638
%%%mzn-stat: nodes=178790
%%%mzn-stat: restarts=0
%%%mzn-stat: peakDepth=1147
%%%mzn-stat: solveTime=83.987860966
%%%mzn-stat: variables=1777
%%%mzn-stat: propagators=6372
%%%mzn-stat: failures=116158
%%%mzn-stat: propagations=93916115
%%%mzn-stat: nogoods=116158
%%%mzn-stat: numAtomicConstraintsPropagated=0
%%%mzn-stat: circuitNumber4951PropagationsThatFoundConflict=13075
%%%mzn-stat: circuitNumber4951TotalFixedEdgesAtConflict=1212218
%%%mzn-stat: circuitNumber4951NumberOfConflicts=13075
%%%mzn-stat: circuitNumber4951PropagationsThatPruned=121989
%%%mzn-stat: circuitNumber4951PropagationsTotal=301875
%%%mzn-stat: AverageConflictSize=6.2639163897450025
%%%mzn-stat: NumUnitNogoodsLearned=0
%%%mzn-stat: AverageLearnedNogoodLength=59.3545171232287
%%%mzn-stat: AverageBacktrackAmount=0
%%%mzn-stat: AverageLbd=51.38222076826391
%%%mzn-stat: 2AutonomousSearchNumBackupCalled=2092
%%%mzn-stat: 2AutonomousSearchNumPredicatesRemoved=0
%%%mzn-stat: 2AutonomousSearchNumCalls=2094
%%%mzn-stat: 2AutonomousSearchNumPredicatesAdded=5729
%%%mzn-stat: 2AutonomousSearchAverageSizeOfHeap=2.9541547277936964
%%%mzn-stat: 2AutonomousSearchNumAssignedPredicatesEncountered=6186
%%%mzn-stat-end
maxleg = 638;
succ = array1d(1..100,[16, 4, 18, 5, 15, 8, 22, 10, 24, 19, 17, 32, 6, 40, 25, 33, 21, 36, 30, 13, 23, 34, 20, 41, 43, 3, 11, 27, 9, 1, 26, 39, 56, 35, 38, 66, 50, 44, 47, 48, 63, 28, 12, 45, 52, 29, 14, 54, 46, 42, 58, 57, 7, 51, 60, 84, 59, 85, 96, 49, 2, 53, 64, 95, 80, 71, 89, 55, 61, 83, 67, 74, 31, 77, 90, 78, 79, 92, 82, 98, 68, 75, 76, 72, 65, 87, 100, 93, 91, 73, 81, 97, 37, 62, 69, 70, 99, 94, 86, 88]);
% time elapsed: 95.89 s
----------
